(set-logic QF_LIA)
(set-info :ran/ran2.smt2)
(set-info :smt-lib-version 2.0)
(declare-fun x1 () Int)
(declare-fun x2 () Int)
(declare-fun x3 () Int)
(declare-fun x4 () Int)
(declare-fun x5 () Int)
(assert (<= (+ (* 5 x1) (* 0 x2) (* 10 x3) (* (- 4) x4) (* 9 x5) ) (- 20)))
(assert (<= (+ (* 0 x1) (* 8 x2) (* 6 x3) (* (- 8) x4) (* 3 x5) ) (- 6)))
(assert (<= (+ (* (- 1) x1) (* 4 x2) (* (- 7) x3) (* 8 x4) (* (- 6) x5) ) 24))
(assert (<= (+ (* (- 2) x1) (* (- 1) x2) (* 7 x3) (* (- 2) x4) (* (- 2) x5) ) 15))
(assert (<= (+ (* (- 10) x1) (* 0 x2) (* (- 6) x3) (* (- 1) x4) (* (- 1) x5) ) (- 11)))
(assert (<= (+ (* 1 x1) (* (- 6) x2) (* (- 8) x3) (* (- 2) x4) (* (- 2) x5) ) 13))
(assert (<= (+ (* (- 3) x1) (* 7 x2) (* 6 x3) (* (- 10) x4) (* 9 x5) ) (- 21)))
(assert (<= (+ (* 10 x1) (* (- 5) x2) (* (- 9) x3) (* (- 9) x4) (* (- 7) x5) ) (- 16)))
(assert (<= (+ (* (- 1) x1) (* (- 1) x2) (* 3 x3) (* (- 5) x4) (* 7 x5) ) 5))
(assert (<= (+ (* 1 x1) (* 6 x2) (* (- 2) x3) (* 6 x4) (* (- 8) x5) ) 23))
(assert (<= (+ (* 1 x1) (* 0 x2) (* 0 x3) (* 0 x4) (* 0 x5) ) 50))
(assert (<= (+ (* (- 1) x1) (* 0 x2) (* 0 x3) (* 0 x4) (* 0 x5) ) 50))
(assert (<= (+ (* 0 x1) (* 1 x2) (* 0 x3) (* 0 x4) (* 0 x5) ) 50))
(assert (<= (+ (* 0 x1) (* (- 1) x2) (* 0 x3) (* 0 x4) (* 0 x5) ) 50))
(assert (<= (+ (* 0 x1) (* 0 x2) (* 1 x3) (* 0 x4) (* 0 x5) ) 50))
(assert (<= (+ (* 0 x1) (* 0 x2) (* (- 1) x3) (* 0 x4) (* 0 x5) ) 50))
(assert (<= (+ (* 0 x1) (* 0 x2) (* 0 x3) (* 1 x4) (* 0 x5) ) 50))
(assert (<= (+ (* 0 x1) (* 0 x2) (* 0 x3) (* (- 1) x4) (* 0 x5) ) 50))
(assert (<= (+ (* 0 x1) (* 0 x2) (* 0 x3) (* 0 x4) (* 1 x5) ) 50))
(assert (<= (+ (* 0 x1) (* 0 x2) (* 0 x3) (* 0 x4) (* (- 1) x5) ) 50))
